networks/zoo_47_331/standard/zoo_47_331.sol
<?xml version = "1.0" encoding="UTF-8" standalone="yes"?>
<CPLEXSolution version="1.2">
 <header
   problemName="networks/zoo_47_331/zoo_47_331.lp"
   solutionName="incumbent"
   solutionIndex="-1"
   objectiveValue="24"
   solutionTypeValue="3"
   solutionTypeString="primal"
   solutionStatusValue="101"
   solutionStatusString="integer optimal solution"
   solutionMethodString="mip"
   primalFeasible="1"
   dualFeasible="1"
   MIPNodes="748"
   MIPIterations="61529"
   writeLevel="3"/>
 <quality
   epInt="1.0000000000000001e-05"
   epRHS="9.9999999999999995e-07"
   maxIntInfeas="0"
   maxPrimalInfeas="0"
   maxX="4"
   maxSlack="10"/>
 <variables>
  <variable name="Y(11,14)" index="473" value="1"/>
  <variable name="Y(23,7)" index="1018" value="1"/>
  <variable name="Y(33,8)" index="1479" value="1"/>
  <variable name="Y(36,3)" index="1612" value="1"/>
  <variable name="Y(41,21)" index="1860" value="1"/>
  <variable name="Y(50,11)" index="2264" value="1"/>
  <variable name="Y(80,22)" index="3655" value="1"/>
  <variable name="Y(87,6)" index="3961" value="1"/>
  <variable name="Y(114,15)" index="5212" value="1"/>
  <variable name="Y(124,2)" index="5659" value="1"/>
  <variable name="Y(151,13)" index="6912" value="1"/>
  <variable name="Y(157,19)" index="7194" value="1"/>
  <variable name="Y(160,1)" index="7314" value="1"/>
  <variable name="Y(180,10)" index="8243" value="1"/>
  <variable name="Y(193,16)" index="8847" value="1"/>
  <variable name="Y(216,20)" index="9909" value="1"/>
  <variable name="Y(220,10)" index="10083" value="1"/>
  <variable name="Y(225,5)" index="10308" value="1"/>
  <variable name="Y(231,8)" index="10587" value="1"/>
  <variable name="Y(238,4)" index="10905" value="1"/>
  <variable name="Y(259,23)" index="11890" value="1"/>
  <variable name="Y(292,17)" index="13402" value="1"/>
  <variable name="Y(309,18)" index="14185" value="1"/>
  <variable name="Y(322,12)" index="14777" value="1"/>
  <variable name="X(1,16,11)" index="15236" value="1"/>
  <variable name="X(1,25,160)" index="15716" value="1"/>
  <variable name="X(2,8,23)" index="15910" value="1"/>
  <variable name="X(2,26,124)" index="16342" value="1"/>
  <variable name="X(3,16,33)" index="16582" value="1"/>
  <variable name="X(3,27,36)" index="16916" value="1"/>
  <variable name="X(4,16,36)" index="17247" value="1"/>
  <variable name="X(4,28,238)" index="17780" value="1"/>
  <variable name="X(5,29,225)" index="18098" value="1"/>
  <variable name="X(6,8,41)" index="18245" value="1"/>
  <variable name="X(6,30,87)" index="18622" value="1"/>
  <variable name="X(7,8,50)" index="18916" value="1"/>
  <variable name="X(7,31,23)" index="19220" value="1"/>
  <variable name="X(8,2,124)" index="19652" value="1"/>
  <variable name="X(8,5,225)" index="20084" value="1"/>
  <variable name="X(8,6,87)" index="20277" value="1"/>
  <variable name="X(8,7,23)" index="20544" value="1"/>
  <variable name="X(8,10,231)" index="21083" value="1"/>
  <variable name="X(8,11,50)" index="21233" value="1"/>
  <variable name="X(8,16,238)" index="21752" value="1"/>
  <variable name="X(8,18,309)" index="22154" value="1"/>
  <variable name="X(8,19,157)" index="22333" value="1"/>
  <variable name="X(8,21,41)" index="22548" value="1"/>
  <variable name="X(8,32,33)" index="22871" value="1"/>
  <variable name="X(9,10,87)" index="23256" value="1"/>
  <variable name="X(10,8,87)" index="23587" value="1"/>
  <variable name="X(10,14,11)" index="23842" value="1"/>
  <variable name="X(10,16,114)" index="24276" value="1"/>
  <variable name="X(10,17,292)" index="24785" value="1"/>
  <variable name="X(10,21,180)" index="25004" value="1"/>
  <variable name="X(10,34,220)" index="25375" value="1"/>
  <variable name="X(11,8,124)" index="25610" value="1"/>
  <variable name="X(11,35,50)" index="25867" value="1"/>
  <variable name="X(12,21,151)" index="26299" value="1"/>
  <variable name="X(12,36,322)" index="26801" value="1"/>
  <variable name="X(13,16,160)" index="26970" value="1"/>
  <variable name="X(13,37,151)" index="27292" value="1"/>
  <variable name="X(14,10,180)" index="27652" value="1"/>
  <variable name="X(14,38,11)" index="27814" value="1"/>
  <variable name="X(15,16,193)" index="28327" value="1"/>
  <variable name="X(15,39,114)" index="28579" value="1"/>
  <variable name="X(16,1,160)" index="28956" value="1"/>
  <variable name="X(16,3,36)" index="29163" value="1"/>
  <variable name="X(16,4,238)" index="29696" value="1"/>
  <variable name="X(16,8,33)" index="29822" value="1"/>
  <variable name="X(16,10,11)" index="30131" value="1"/>
  <variable name="X(16,13,151)" index="30602" value="1"/>
  <variable name="X(16,15,114)" index="30896" value="1"/>
  <variable name="X(16,21,216)" index="31329" value="1"/>
  <variable name="X(16,40,193)" index="31637" value="1"/>
  <variable name="X(17,10,220)" index="31995" value="1"/>
  <variable name="X(17,41,292)" index="32398" value="1"/>
  <variable name="X(18,8,225)" index="32662" value="1"/>
  <variable name="X(18,42,309)" index="33077" value="1"/>
  <variable name="X(19,8,238)" index="33337" value="1"/>
  <variable name="X(19,43,157)" index="33587" value="1"/>
  <variable name="X(20,21,259)" index="34020" value="1"/>
  <variable name="X(20,44,216)" index="34308" value="1"/>
  <variable name="X(21,8,309)" index="34732" value="1"/>
  <variable name="X(21,10,292)" index="35046" value="1"/>
  <variable name="X(21,12,322)" index="35407" value="1"/>
  <variable name="X(21,16,151)" index="35567" value="1"/>
  <variable name="X(21,20,216)" index="35963" value="1"/>
  <variable name="X(21,22,80)" index="36158" value="1"/>
  <variable name="X(21,23,259)" index="36668" value="1"/>
  <variable name="X(21,45,41)" index="36781" value="1"/>
  <variable name="X(22,21,292)" index="37363" value="1"/>
  <variable name="X(22,46,80)" index="37482" value="1"/>
  <variable name="X(23,21,309)" index="38042" value="1"/>
  <variable name="X(23,47,259)" index="38323" value="1"/>
  <variable name="X(24,21,322)" index="38717" value="1"/>
  <variable name="C(11,16)" index="38763" value="1"/>
  <variable name="C(11,10)" index="38764" value="2"/>
  <variable name="C(11,14)" index="38765" value="3"/>
  <variable name="C(23,8)" index="38806" value="1"/>
  <variable name="C(23,7)" index="38807" value="2"/>
  <variable name="C(33,16)" index="38838" value="1"/>
  <variable name="C(33,8)" index="38839" value="2"/>
  <variable name="C(36,16)" index="38847" value="1"/>
  <variable name="C(36,3)" index="38848" value="2"/>
  <variable name="C(41,8)" index="38863" value="1"/>
  <variable name="C(41,21)" index="38864" value="2"/>
  <variable name="C(50,8)" index="38892" value="1"/>
  <variable name="C(50,11)" index="38893" value="2"/>
  <variable name="C(80,22)" index="38979" value="1"/>
  <variable name="C(87,10)" index="39004" value="1"/>
  <variable name="C(87,8)" index="39005" value="2"/>
  <variable name="C(87,6)" index="39006" value="3"/>
  <variable name="C(114,16)" index="39091" value="1"/>
  <variable name="C(114,15)" index="39092" value="2"/>
  <variable name="C(124,8)" index="39119" value="1"/>
  <variable name="C(124,2)" index="39120" value="2"/>
  <variable name="C(151,21)" index="39214" value="1"/>
  <variable name="C(151,16)" index="39215" value="2"/>
  <variable name="C(151,13)" index="39216" value="3"/>
  <variable name="C(157,19)" index="39239" value="1"/>
  <variable name="C(160,16)" index="39246" value="1"/>
  <variable name="C(160,1)" index="39247" value="2"/>
  <variable name="C(180,10)" index="39315" value="1"/>
  <variable name="C(193,16)" index="39360" value="1"/>
  <variable name="C(216,21)" index="39425" value="1"/>
  <variable name="C(216,20)" index="39426" value="2"/>
  <variable name="C(220,10)" index="39436" value="1"/>
  <variable name="C(225,18)" index="39452" value="2"/>
  <variable name="C(225,8)" index="39453" value="3"/>
  <variable name="C(225,5)" index="39454" value="4"/>
  <variable name="C(238,19)" index="39496" value="1"/>
  <variable name="C(238,8)" index="39497" value="2"/>
  <variable name="C(238,16)" index="39498" value="3"/>
  <variable name="C(238,4)" index="39499" value="4"/>
  <variable name="C(259,21)" index="39571" value="1"/>
  <variable name="C(259,23)" index="39572" value="2"/>
  <variable name="C(292,21)" index="39670" value="1"/>
  <variable name="C(292,10)" index="39671" value="2"/>
  <variable name="C(292,17)" index="39672" value="3"/>
  <variable name="C(309,21)" index="39731" value="1"/>
  <variable name="C(309,8)" index="39732" value="2"/>
  <variable name="C(309,18)" index="39733" value="3"/>
  <variable name="C(322,21)" index="39779" value="1"/>
  <variable name="C(322,12)" index="39780" value="2"/>
 </variables>
</CPLEXSolution>
